p cnf 57 913
c max 37 38 39 40 41 42 43 44 45 46 47 48 49 50 51 52 53 54 55 56 57 0
c ind 1 2 3 4 5 6 7 8 9 10 11 12 13 14 15 16 17 18 19 20 21 22 23 24 25 26 27 28 29 30 31 32 33 34 35 36 0
c p weight 9 -1 0
c p weight -9 1 0
c p weight 10 0.5 0
c p weight -10 1 0
c p weight 13 -1 0
c p weight -13 1 0
c p weight 14 0.5 0
c p weight -14 1 0
c p weight 17 -1 0
c p weight -17 1 0
c p weight 20 -1 0
c p weight -20 1 0
c p weight 21 0.5 0
c p weight -21 1 0
c p weight 24 -1 0
c p weight -24 1 0
c p weight 31 -1 0
c p weight 32 -1 0
c p weight 33 -1 0
c p weight -31 1 0
c p weight -32 1 0
c p weight -33 1 0
c p weight 34 0.5 0
c p weight 35 0.5 0
c p weight 36 0.5 0
c p weight -34 1 0
c p weight -35 1 0
c p weight -36 1 0
7 1 -2 6 0
-7 1 2 6 0
8 1 -5 6 0
-8 1 5 6 0
-9 1 6 0
-9 8 7 2 0
-9 8 1 5 0
-9 7 2 6 0
-9 8 -7 5 0
-9 -8 1 -5 0
-9 -8 -5 2 0
-9 -7 -2 6 0
-9 8 7 -5 6 0
-9 -7 1 5 2 0
-9 -7 -5 -2 0
-9 -8 7 5 -2 0
9 8 7 -1 5 -2 0
9 -8 7 5 2 -6 0
-9 -1 -5 2 -6 0
9 8 7 -5 -2 -6 0
9 -8 -7 -1 5 2 0
9 -8 7 -1 -5 -2 0
9 -8 -7 5 -2 -6 0
9 8 -7 1 -5 2 -6 0
9 8 -7 -1 -5 2 6 0
10 -1 0
10 -6 0
-10 1 6 0
11 3 -4 6 0
-11 3 4 6 0
12 3 -8 6 0
-12 3 8 6 0
-13 3 6 0
-13 12 11 4 0
-13 12 3 8 0
-13 11 4 6 0
-13 12 -11 8 0
-13 -12 3 -8 0
-13 -12 -8 4 0
-13 -11 -4 6 0
-13 12 11 -8 6 0
-13 -11 3 8 4 0
-13 -11 -8 -4 0
-13 -12 11 8 -4 0
13 12 11 -3 8 -4 0
13 -12 11 8 4 -6 0
-13 -3 -8 4 -6 0
13 12 11 -8 -4 -6 0
13 -12 -11 -3 8 4 0
13 -12 11 -3 -8 -4 0
13 -12 -11 8 -4 -6 0
13 12 -11 3 -8 4 -6 0
13 12 -11 -3 -8 4 6 0
14 -3 0
14 -6 0
-14 3 6 0
15 1 -3 0
15 -1 3 0
-15 1 3 0
-15 -1 -3 0
16 7 -11 0
16 -7 11 0
-16 7 11 0
-16 -7 -11 0
-17 1 0
-17 11 0
-17 3 -7 0
-17 -3 7 0
17 -1 3 7 -11 0
17 -1 -3 -7 -11 0
18 15 -11 6 0
-18 15 11 6 0
19 15 -12 6 0
-19 15 12 6 0
-20 15 6 0
-20 19 18 12 0
-20 19 15 12 0
-20 18 11 6 0
-20 -19 18 11 0
-20 -19 15 -12 0
-20 -18 12 -11 0
-20 -18 -11 6 0
-20 19 18 15 -11 0
-20 -19 12 11 6 0
-20 -19 -12 -11 0
-20 19 -18 -12 11 0
20 19 18 -12 11 -6 0
20 19 -18 -15 12 11 0
-20 -15 12 -11 -6 0
20 19 18 -15 -12 -11 0
20 -19 -18 12 11 -6 0
20 19 -18 -12 -11 -6 0
20 -19 -18 -15 -12 11 0
20 -19 18 15 12 -11 -6 0
20 -19 18 -15 12 -11 6 0
21 -15 0
21 -6 0
-21 15 6 0
22 1 -15 0
22 -1 15 0
-22 1 15 0
-22 -1 -15 0
23 16 -18 0
23 -16 18 0
-23 16 18 0
-23 -16 -18 0
-24 1 0
-24 18 0
-24 15 -16 0
-24 -15 16 0
24 -1 15 16 -18 0
24 -1 -15 -16 -18 0
-31 -37 0
25 -37 -1 0
-25 -37 1 0
28 -37 -23 0
-28 -37 23 0
-34 -37 0
25 -40 -1 0
-25 -40 1 0
26 -40 1 -22 0
26 -40 -1 22 0
-26 -40 1 22 0
-26 -40 -1 -22 0
28 -40 23 -18 0
28 -40 -23 18 0
-28 -40 23 18 0
-28 -40 -23 -18 0
29 -40 -18 0
-29 -40 18 0
-31 -40 1 0
-31 -40 18 0
-31 -40 22 -23 0
-31 -40 -22 23 0
31 -40 -1 22 23 -18 0
31 -40 -1 -22 -23 -18 0
-32 -40 0
-34 -40 0
-35 -40 0
25 -52 -1 0
25 -46 -1 0
-25 -52 1 0
-25 -46 1 0
26 -52 1 -22 18 0
26 -46 1 -22 18 0
-26 -52 1 22 18 0
-26 -46 1 22 18 0
28 -52 1 -23 18 0
28 -46 1 -23 18 0
-28 -52 1 23 18 0
-28 -46 1 23 18 0
29 -52 -18 0
29 -46 -18 0
-29 -52 18 0
-29 -46 18 0
-31 -46 1 18 0
-31 26 28 -46 23 0
-31 26 -46 1 22 0
-31 28 -46 23 18 0
-31 26 -28 -46 22 0
-31 -26 -46 1 -22 0
-31 -26 -46 -22 23 0
-31 -28 -46 -23 18 0
-31 26 28 -46 -22 18 0
-31 -28 -46 1 22 23 0
-31 -28 -46 -22 -23 0
-31 -26 28 -46 22 -23 0
31 26 28 -46 -1 22 -23 0
31 -26 28 -46 22 23 -18 0
-31 -46 -1 -22 23 -18 0
31 26 28 -46 -22 -23 -18 0
31 -26 -28 -46 -1 22 23 0
31 -26 28 -46 -1 -22 -23 0
31 -26 -28 -46 22 -23 -18 0
31 26 -28 -46 1 -22 23 -18 0
31 26 -28 -46 -1 -22 23 18 0
-31 -52 1 18 0
-31 26 28 -52 22 0
-31 26 -52 1 22 0
-31 28 -52 23 18 0
-31 -26 28 -52 23 0
-31 -26 -52 1 -22 0
-31 -28 -52 22 -23 0
-31 -28 -52 -23 18 0
-31 26 28 -52 1 -23 0
-31 -26 -52 22 23 18 0
-31 -26 -52 -22 -23 0
-31 26 -28 -52 -22 23 0
31 26 28 -52 -22 23 -18 0
31 26 -28 -52 -1 22 23 0
-31 -52 -1 22 -23 -18 0
31 26 28 -52 -1 -22 -23 0
31 -26 -28 -52 22 23 -18 0
31 26 -28 -52 -22 -23 -18 0
31 -26 -28 -52 -1 -22 23 0
31 -26 28 -52 1 22 -23 -18 0
31 -26 28 -52 -1 22 -23 18 0
-32 -52 0
-32 -46 0
-35 -52 0
-35 -46 0
34 -52 -1 0
34 -52 -18 0
34 -46 -1 0
34 -46 -18 0
-34 -52 1 18 0
-34 -46 1 18 0
25 -41 -1 0
-25 -41 1 0
27 -41 1 -19 0
27 -41 -1 19 0
-27 -41 1 19 0
-27 -41 -1 -19 0
28 -41 23 -6 0
28 -41 -23 6 0
-28 -41 23 6 0
-28 -41 -23 -6 0
30 -41 -6 0
-30 -41 6 0
-31 -41 1 0
-31 -41 6 0
-31 -41 19 -23 0
-31 -41 -19 23 0
31 -41 -1 19 23 -6 0
31 -41 -1 -19 -23 -6 0
-33 -41 0
-34 -41 0
-36 -41 0
25 -53 -1 0
25 -47 -1 0
-25 -53 1 0
-25 -47 1 0
27 -53 1 -19 6 0
27 -47 1 -19 6 0
-27 -53 1 19 6 0
-27 -47 1 19 6 0
28 -53 1 -23 6 0
28 -47 1 -23 6 0
-28 -53 1 23 6 0
-28 -47 1 23 6 0
30 -53 -6 0
30 -47 -6 0
-30 -53 6 0
-30 -47 6 0
-31 -47 1 6 0
-31 27 28 -47 23 0
-31 27 -47 1 19 0
-31 28 -47 23 6 0
-31 27 -28 -47 19 0
-31 -27 -47 1 -19 0
-31 -27 -47 -19 23 0
-31 -28 -47 -23 6 0
-31 27 28 -47 -19 6 0
-31 -28 -47 1 19 23 0
-31 -28 -47 -19 -23 0
-31 -27 28 -47 19 -23 0
31 27 28 -47 -1 19 -23 0
31 -27 28 -47 19 23 -6 0
-31 -47 -1 -19 23 -6 0
31 27 28 -47 -19 -23 -6 0
31 -27 -28 -47 -1 19 23 0
31 -27 28 -47 -1 -19 -23 0
31 -27 -28 -47 19 -23 -6 0
31 27 -28 -47 1 -19 23 -6 0
31 27 -28 -47 -1 -19 23 6 0
-31 -53 1 6 0
-31 27 28 -53 19 0
-31 27 -53 1 19 0
-31 28 -53 23 6 0
-31 -27 28 -53 23 0
-31 -27 -53 1 -19 0
-31 -28 -53 19 -23 0
-31 -28 -53 -23 6 0
-31 27 28 -53 1 -23 0
-31 -27 -53 19 23 6 0
-31 -27 -53 -19 -23 0
-31 27 -28 -53 -19 23 0
31 27 28 -53 -19 23 -6 0
31 27 -28 -53 -1 19 23 0
-31 -53 -1 19 -23 -6 0
31 27 28 -53 -1 -19 -23 0
31 -27 -28 -53 19 23 -6 0
31 27 -28 -53 -19 -23 -6 0
31 -27 -28 -53 -1 -19 23 0
31 -27 28 -53 1 19 -23 -6 0
31 -27 28 -53 -1 19 -23 6 0
-33 -53 0
-33 -47 0
-36 -53 0
-36 -47 0
34 -53 -1 0
34 -53 -6 0
34 -47 -1 0
34 -47 -6 0
-34 -53 1 6 0
-34 -47 1 6 0
37 40 41 42 44 46 47 48 50 52 53 54 56 0
-37 -40 0
-37 -41 0
-37 -42 0
-37 -44 0
-37 -46 0
-37 -47 0
-37 -48 0
-37 -50 0
-37 -52 0
-37 -53 0
-37 -54 0
-37 -56 0
-40 -41 0
-40 -42 0
-40 -44 0
-40 -46 0
-40 -47 0
-40 -48 0
-40 -50 0
-40 -52 0
-40 -53 0
-40 -54 0
-40 -56 0
-41 -42 0
-41 -44 0
-41 -46 0
-41 -47 0
-41 -48 0
-41 -50 0
-41 -52 0
-41 -53 0
-41 -54 0
-41 -56 0
-42 -44 0
-42 -46 0
-42 -47 0
-42 -48 0
-42 -50 0
-42 -52 0
-42 -53 0
-42 -54 0
-42 -56 0
-44 -46 0
-44 -47 0
-44 -48 0
-44 -50 0
-44 -52 0
-44 -53 0
-44 -54 0
-44 -56 0
-46 -47 0
-46 -48 0
-46 -50 0
-46 -52 0
-46 -53 0
-46 -54 0
-46 -56 0
-47 -48 0
-47 -50 0
-47 -52 0
-47 -53 0
-47 -54 0
-47 -56 0
-48 -50 0
-48 -52 0
-48 -53 0
-48 -54 0
-48 -56 0
-50 -52 0
-50 -53 0
-50 -54 0
-50 -56 0
-52 -53 0
-52 -54 0
-52 -56 0
-53 -54 0
-53 -56 0
-54 -56 0
-32 -38 0
26 -38 -22 0
-26 -38 22 0
29 -38 -18 0
-29 -38 18 0
-35 -38 0
26 -42 -22 0
-26 -42 22 0
25 -42 22 -1 0
25 -42 -22 1 0
-25 -42 22 1 0
-25 -42 -22 -1 0
29 -42 18 -23 0
29 -42 -18 23 0
-29 -42 18 23 0
-29 -42 -18 -23 0
28 -42 -23 0
-28 -42 23 0
-32 -42 22 0
-32 -42 23 0
-32 -42 1 -18 0
-32 -42 -1 18 0
32 -42 -22 1 18 -23 0
32 -42 -22 -1 -18 -23 0
-31 -42 0
-35 -42 0
-34 -42 0
26 -54 -22 0
26 -48 -22 0
-26 -54 22 0
-26 -48 22 0
25 -54 22 -1 23 0
25 -48 22 -1 23 0
-25 -54 22 1 23 0
-25 -48 22 1 23 0
29 -54 22 -18 23 0
29 -48 22 -18 23 0
-29 -54 22 18 23 0
-29 -48 22 18 23 0
28 -54 -23 0
28 -48 -23 0
-28 -54 23 0
-28 -48 23 0
-32 -48 22 23 0
-32 25 29 -48 18 0
-32 25 -48 22 1 0
-32 29 -48 18 23 0
-32 25 -29 -48 1 0
-32 -25 -48 22 -1 0
-32 -25 -48 -1 18 0
-32 -29 -48 -18 23 0
-32 25 29 -48 -1 23 0
-32 -29 -48 22 1 18 0
-32 -29 -48 -1 -18 0
-32 -25 29 -48 1 -18 0
32 25 29 -48 -22 1 -18 0
32 -25 29 -48 1 18 -23 0
-32 -48 -22 -1 18 -23 0
32 25 29 -48 -1 -18 -23 0
32 -25 -29 -48 -22 1 18 0
32 -25 29 -48 -22 -1 -18 0
32 -25 -29 -48 1 -18 -23 0
32 25 -29 -48 22 -1 18 -23 0
32 25 -29 -48 -22 -1 18 23 0
-32 -54 22 23 0
-32 25 29 -54 1 0
-32 25 -54 22 1 0
-32 29 -54 18 23 0
-32 -25 29 -54 18 0
-32 -25 -54 22 -1 0
-32 -29 -54 1 -18 0
-32 -29 -54 -18 23 0
-32 25 29 -54 22 -18 0
-32 -25 -54 1 18 23 0
-32 -25 -54 -1 -18 0
-32 25 -29 -54 -1 18 0
32 25 29 -54 -1 18 -23 0
32 25 -29 -54 -22 1 18 0
-32 -54 -22 1 -18 -23 0
32 25 29 -54 -22 -1 -18 0
32 -25 -29 -54 1 18 -23 0
32 25 -29 -54 -1 -18 -23 0
32 -25 -29 -54 -22 -1 18 0
32 -25 29 -54 22 1 -18 -23 0
32 -25 29 -54 -22 1 -18 23 0
-31 -54 0
-31 -48 0
-34 -54 0
-34 -48 0
35 -54 -22 0
35 -54 -23 0
35 -48 -22 0
35 -48 -23 0
-35 -54 22 23 0
-35 -48 22 23 0
26 -43 -22 0
-26 -43 22 0
27 -43 22 -19 0
27 -43 -22 19 0
-27 -43 22 19 0
-27 -43 -22 -19 0
29 -43 18 -6 0
29 -43 -18 6 0
-29 -43 18 6 0
-29 -43 -18 -6 0
30 -43 -6 0
-30 -43 6 0
-32 -43 22 0
-32 -43 6 0
-32 -43 19 -18 0
-32 -43 -19 18 0
32 -43 -22 19 18 -6 0
32 -43 -22 -19 -18 -6 0
-33 -43 0
-35 -43 0
-36 -43 0
26 -55 -22 0
26 -49 -22 0
-26 -55 22 0
-26 -49 22 0
27 -55 22 -19 6 0
27 -49 22 -19 6 0
-27 -55 22 19 6 0
-27 -49 22 19 6 0
29 -55 22 -18 6 0
29 -49 22 -18 6 0
-29 -55 22 18 6 0
-29 -49 22 18 6 0
30 -55 -6 0
30 -49 -6 0
-30 -55 6 0
-30 -49 6 0
-32 -49 22 6 0
-32 27 29 -49 18 0
-32 27 -49 22 19 0
-32 29 -49 18 6 0
-32 27 -29 -49 19 0
-32 -27 -49 22 -19 0
-32 -27 -49 -19 18 0
-32 -29 -49 -18 6 0
-32 27 29 -49 -19 6 0
-32 -29 -49 22 19 18 0
-32 -29 -49 -19 -18 0
-32 -27 29 -49 19 -18 0
32 27 29 -49 -22 19 -18 0
32 -27 29 -49 19 18 -6 0
-32 -49 -22 -19 18 -6 0
32 27 29 -49 -19 -18 -6 0
32 -27 -29 -49 -22 19 18 0
32 -27 29 -49 -22 -19 -18 0
32 -27 -29 -49 19 -18 -6 0
32 27 -29 -49 22 -19 18 -6 0
32 27 -29 -49 -22 -19 18 6 0
-32 -55 22 6 0
-32 27 29 -55 19 0
-32 27 -55 22 19 0
-32 29 -55 18 6 0
-32 -27 29 -55 18 0
-32 -27 -55 22 -19 0
-32 -29 -55 19 -18 0
-32 -29 -55 -18 6 0
-32 27 29 -55 22 -18 0
-32 -27 -55 19 18 6 0
-32 -27 -55 -19 -18 0
-32 27 -29 -55 -19 18 0
32 27 29 -55 -19 18 -6 0
32 27 -29 -55 -22 19 18 0
-32 -55 -22 19 -18 -6 0
32 27 29 -55 -22 -19 -18 0
32 -27 -29 -55 19 18 -6 0
32 27 -29 -55 -19 -18 -6 0
32 -27 -29 -55 -22 -19 18 0
32 -27 29 -55 22 19 -18 -6 0
32 -27 29 -55 -22 19 -18 6 0
-33 -55 0
-33 -49 0
-36 -55 0
-36 -49 0
35 -55 -22 0
35 -55 -6 0
35 -49 -22 0
35 -49 -6 0
-35 -55 22 6 0
-35 -49 22 6 0
38 42 43 40 45 48 49 46 51 54 55 52 57 0
-38 -42 0
-38 -43 0
-38 -40 0
-38 -45 0
-38 -48 0
-38 -49 0
-38 -46 0
-38 -51 0
-38 -54 0
-38 -55 0
-38 -52 0
-38 -57 0
-42 -43 0
-42 -40 0
-42 -45 0
-42 -48 0
-42 -49 0
-42 -46 0
-42 -51 0
-42 -54 0
-42 -55 0
-42 -52 0
-42 -57 0
-43 -40 0
-43 -45 0
-43 -48 0
-43 -49 0
-43 -46 0
-43 -51 0
-43 -54 0
-43 -55 0
-43 -52 0
-43 -57 0
-40 -45 0
-40 -48 0
-40 -49 0
-40 -46 0
-40 -51 0
-40 -54 0
-40 -55 0
-40 -52 0
-40 -57 0
-45 -48 0
-45 -49 0
-45 -46 0
-45 -51 0
-45 -54 0
-45 -55 0
-45 -52 0
-45 -57 0
-48 -49 0
-48 -46 0
-48 -51 0
-48 -54 0
-48 -55 0
-48 -52 0
-48 -57 0
-49 -46 0
-49 -51 0
-49 -54 0
-49 -55 0
-49 -52 0
-49 -57 0
-46 -51 0
-46 -54 0
-46 -55 0
-46 -52 0
-46 -57 0
-51 -54 0
-51 -55 0
-51 -52 0
-51 -57 0
-54 -55 0
-54 -52 0
-54 -57 0
-55 -52 0
-55 -57 0
-52 -57 0
-33 -39 0
27 -39 -19 0
-27 -39 19 0
30 -39 -6 0
-30 -39 6 0
-36 -39 0
27 -44 -19 0
-27 -44 19 0
25 -44 19 -1 0
25 -44 -19 1 0
-25 -44 19 1 0
-25 -44 -19 -1 0
30 -44 6 -23 0
30 -44 -6 23 0
-30 -44 6 23 0
-30 -44 -6 -23 0
28 -44 -23 0
-28 -44 23 0
-33 -44 19 0
-33 -44 23 0
-33 -44 1 -6 0
-33 -44 -1 6 0
33 -44 -19 1 6 -23 0
33 -44 -19 -1 -6 -23 0
-31 -44 0
-36 -44 0
-34 -44 0
27 -56 -19 0
27 -50 -19 0
-27 -56 19 0
-27 -50 19 0
25 -56 19 -1 23 0
25 -50 19 -1 23 0
-25 -56 19 1 23 0
-25 -50 19 1 23 0
30 -56 19 -6 23 0
30 -50 19 -6 23 0
-30 -56 19 6 23 0
-30 -50 19 6 23 0
28 -56 -23 0
28 -50 -23 0
-28 -56 23 0
-28 -50 23 0
-33 -50 19 23 0
-33 25 30 -50 6 0
-33 25 -50 19 1 0
-33 30 -50 6 23 0
-33 25 -30 -50 1 0
-33 -25 -50 19 -1 0
-33 -25 -50 -1 6 0
-33 -30 -50 -6 23 0
-33 25 30 -50 -1 23 0
-33 -30 -50 19 1 6 0
-33 -30 -50 -1 -6 0
-33 -25 30 -50 1 -6 0
33 25 30 -50 -19 1 -6 0
33 -25 30 -50 1 6 -23 0
-33 -50 -19 -1 6 -23 0
33 25 30 -50 -1 -6 -23 0
33 -25 -30 -50 -19 1 6 0
33 -25 30 -50 -19 -1 -6 0
33 -25 -30 -50 1 -6 -23 0
33 25 -30 -50 19 -1 6 -23 0
33 25 -30 -50 -19 -1 6 23 0
-33 -56 19 23 0
-33 25 30 -56 1 0
-33 25 -56 19 1 0
-33 30 -56 6 23 0
-33 -25 30 -56 6 0
-33 -25 -56 19 -1 0
-33 -30 -56 1 -6 0
-33 -30 -56 -6 23 0
-33 25 30 -56 19 -6 0
-33 -25 -56 1 6 23 0
-33 -25 -56 -1 -6 0
-33 25 -30 -56 -1 6 0
33 25 30 -56 -1 6 -23 0
33 25 -30 -56 -19 1 6 0
-33 -56 -19 1 -6 -23 0
33 25 30 -56 -19 -1 -6 0
33 -25 -30 -56 1 6 -23 0
33 25 -30 -56 -1 -6 -23 0
33 -25 -30 -56 -19 -1 6 0
33 -25 30 -56 19 1 -6 -23 0
33 -25 30 -56 -19 1 -6 23 0
-31 -56 0
-31 -50 0
-34 -56 0
-34 -50 0
36 -56 -19 0
36 -56 -23 0
36 -50 -19 0
36 -50 -23 0
-36 -56 19 23 0
-36 -50 19 23 0
27 -45 -19 0
-27 -45 19 0
26 -45 19 -22 0
26 -45 -19 22 0
-26 -45 19 22 0
-26 -45 -19 -22 0
30 -45 6 -18 0
30 -45 -6 18 0
-30 -45 6 18 0
-30 -45 -6 -18 0
29 -45 -18 0
-29 -45 18 0
-33 -45 19 0
-33 -45 18 0
-33 -45 22 -6 0
-33 -45 -22 6 0
33 -45 -19 22 6 -18 0
33 -45 -19 -22 -6 -18 0
-32 -45 0
-36 -45 0
-35 -45 0
27 -57 -19 0
27 -51 -19 0
-27 -57 19 0
-27 -51 19 0
26 -57 19 -22 18 0
26 -51 19 -22 18 0
-26 -57 19 22 18 0
-26 -51 19 22 18 0
30 -57 19 -6 18 0
30 -51 19 -6 18 0
-30 -57 19 6 18 0
-30 -51 19 6 18 0
29 -57 -18 0
29 -51 -18 0
-29 -57 18 0
-29 -51 18 0
-33 -51 19 18 0
-33 26 30 -51 6 0
-33 26 -51 19 22 0
-33 30 -51 6 18 0
-33 26 -30 -51 22 0
-33 -26 -51 19 -22 0
-33 -26 -51 -22 6 0
-33 -30 -51 -6 18 0
-33 26 30 -51 -22 18 0
-33 -30 -51 19 22 6 0
-33 -30 -51 -22 -6 0
-33 -26 30 -51 22 -6 0
33 26 30 -51 -19 22 -6 0
33 -26 30 -51 22 6 -18 0
-33 -51 -19 -22 6 -18 0
33 26 30 -51 -22 -6 -18 0
33 -26 -30 -51 -19 22 6 0
33 -26 30 -51 -19 -22 -6 0
33 -26 -30 -51 22 -6 -18 0
33 26 -30 -51 19 -22 6 -18 0
33 26 -30 -51 -19 -22 6 18 0
-33 -57 19 18 0
-33 26 30 -57 22 0
-33 26 -57 19 22 0
-33 30 -57 6 18 0
-33 -26 30 -57 6 0
-33 -26 -57 19 -22 0
-33 -30 -57 22 -6 0
-33 -30 -57 -6 18 0
-33 26 30 -57 19 -6 0
-33 -26 -57 22 6 18 0
-33 -26 -57 -22 -6 0
-33 26 -30 -57 -22 6 0
33 26 30 -57 -22 6 -18 0
33 26 -30 -57 -19 22 6 0
-33 -57 -19 22 -6 -18 0
33 26 30 -57 -19 -22 -6 0
33 -26 -30 -57 22 6 -18 0
33 26 -30 -57 -22 -6 -18 0
33 -26 -30 -57 -19 -22 6 0
33 -26 30 -57 19 22 -6 -18 0
33 -26 30 -57 -19 22 -6 18 0
-32 -57 0
-32 -51 0
-35 -57 0
-35 -51 0
36 -57 -19 0
36 -57 -18 0
36 -51 -19 0
36 -51 -18 0
-36 -57 19 18 0
-36 -51 19 18 0
39 44 45 41 43 50 51 47 49 56 57 53 55 0
-39 -44 0
-39 -45 0
-39 -41 0
-39 -43 0
-39 -50 0
-39 -51 0
-39 -47 0
-39 -49 0
-39 -56 0
-39 -57 0
-39 -53 0
-39 -55 0
-44 -45 0
-44 -41 0
-44 -43 0
-44 -50 0
-44 -51 0
-44 -47 0
-44 -49 0
-44 -56 0
-44 -57 0
-44 -53 0
-44 -55 0
-45 -41 0
-45 -43 0
-45 -50 0
-45 -51 0
-45 -47 0
-45 -49 0
-45 -56 0
-45 -57 0
-45 -53 0
-45 -55 0
-41 -43 0
-41 -50 0
-41 -51 0
-41 -47 0
-41 -49 0
-41 -56 0
-41 -57 0
-41 -53 0
-41 -55 0
-43 -50 0
-43 -51 0
-43 -47 0
-43 -49 0
-43 -56 0
-43 -57 0
-43 -53 0
-43 -55 0
-50 -51 0
-50 -47 0
-50 -49 0
-50 -56 0
-50 -57 0
-50 -53 0
-50 -55 0
-51 -47 0
-51 -49 0
-51 -56 0
-51 -57 0
-51 -53 0
-51 -55 0
-47 -49 0
-47 -56 0
-47 -57 0
-47 -53 0
-47 -55 0
-49 -56 0
-49 -57 0
-49 -53 0
-49 -55 0
-56 -57 0
-56 -53 0
-56 -55 0
-57 -53 0
-57 -55 0
-53 -55 0
25 -1 0
-25 1 0
28 -2 0
-28 2 0
26 -3 0
-26 3 0
29 -4 0
-29 4 0
27 -5 0
-27 5 0
30 -6 0
-30 6 0
